NAME : amz2052.120556_120556.tour
COMMENT : Cost = 120556_120556
COMMENT : Found by LKH-AMZ [Keld Helsgaun] Sun May 11 15:06:07 2025
COMMENT : TW viol.: 0 #: 0
TYPE : TOUR
DIMENSION : 160
TOUR_SECTION
12
144
107
97
39
82
19
37
142
64
1
75
42
65
121
24
35
2
132
9
148
150
154
10
141
61
115
7
30
103
27
14
111
78
76
120
15
22
131
8
23
25
47
130
81
102
145
147
62
124
4
106
45
52
63
134
33
71
157
86
77
87
104
85
56
98
96
55
53
143
137
105
3
68
93
44
73
51
128
123
59
16
26
88
90
67
54
18
129
95
108
58
43
99
80
94
133
140
122
118
151
114
125
38
146
127
48
74
119
49
91
92
153
155
136
32
89
66
152
158
72
46
79
17
126
69
100
29
117
28
101
70
5
84
6
50
34
110
139
113
60
21
135
40
159
83
109
57
41
149
31
11
160
138
36
112
116
20
156
13
-1
EOF
